g3 0 1 0	# problem d6n6R3R6d005d05
 6 8 1 0 3	# vars, constraints, objectives, ranges, eqns
 4 1	# nonlinear constraints, objectives
 0 0	# network constraints: nonlinear, linear
 6 6 6	# nonlinear vars in constraints, objectives, both
 0 0 0 1	# linear network variables; functions; arith, flags
 0 0 0 0 0	# discrete variables: binary, integer, nonlinear (b,c,o)
 39 6	# nonzeros in Jacobian, gradients
 0 0	# max name lengths: constraints, variables
 0 0 0 0 0	# common exprs: b,c,o,c1,o1
b
0 0.64 2.47
0 0.5 2.77
0 0.66 2.88
0 0.24 2.63
0 0.09 2.1
0 0.71 2.88
r
2 54.05
2 128.199
2 386.119
2 960.624
4 21.477
4 27.913
4 15.651
2 41.849
C0
o2
o2
n2.22
v2
v3
C1
o54
5
o2
o2
n9.32
v2
v3
o2
o2
o2
n7.62
v0
v3
v5
o2
o2
o2
n7.69
v0
v5
v5
o2
o2
o2
n6.61
v1
v2
v4
o16
o2
o2
o2
n9.03
v3
v3
v5
C2
o54
16
o2
o2
n2.96
v2
v3
o2
o2
o2
n3.36
v0
v3
v5
o2
o2
o2
n5.87
v0
v5
v5
o2
o2
o2
n1.61
v1
v2
v4
o2
o2
o2
n9.96
v3
v3
v5
o2
o2
o2
o2
n1.82
v0
v0
v4
v4
o2
o2
o2
o2
n5.36
v0
v1
v4
v5
o2
o2
o2
o2
n7.7
v0
v3
v3
v3
o2
o2
o2
o2
n7.95
v0
v4
v5
v5
o2
o2
o2
o2
n5.47
v1
v1
v1
v2
o16
o2
o2
o2
o2
n3.34
v1
v1
v1
v5
o2
o2
o2
o2
n2.18
v1
v1
v3
v3
o2
o2
o2
o2
n4.31
v1
v2
v2
v5
o2
o2
o2
o2
n5.21
v1
v3
v3
v3
o2
o2
o2
o2
n8.26
v2
v3
v3
v3
o2
o2
o2
o2
n1.82
v3
v3
v3
v4
C3
o54
26
o2
o2
n5.56
v2
v3
o2
o2
o2
n1.58
v0
v3
v5
o2
o2
o2
n9.93
v0
v5
v5
o2
o2
o2
n9.97
v1
v2
v4
o2
o2
o2
n2.63
v3
v3
v5
o2
o2
o2
o2
n7.84
v0
v0
v4
v4
o2
o2
o2
o2
n2.01
v0
v1
v4
v5
o2
o2
o2
o2
n8.91
v0
v3
v3
v3
o2
o2
o2
o2
n8.91
v0
v4
v5
v5
o2
o2
o2
o2
n7.54
v1
v1
v1
v2
o2
o2
o2
o2
n4.59
v1
v1
v1
v5
o2
o2
o2
o2
n2.77
v1
v1
v3
v3
o2
o2
o2
o2
n9.33
v1
v2
v2
v5
o2
o2
o2
o2
n8.1
v1
v3
v3
v3
o2
o2
o2
o2
n3.23
v2
v3
v3
v3
o2
o2
o2
o2
n1.19
v3
v3
v3
v4
o2
o2
o2
o2
o2
n5.78
v0
v0
v0
v0
v0
o2
o2
o2
o2
o2
n2.46
v0
v0
v1
v1
v2
o2
o2
o2
o2
o2
n5.77
v0
v0
v1
v2
v3
o2
o2
o2
o2
o2
n6.65
v0
v0
v1
v3
v4
o2
o2
o2
o2
o2
n8.02
v0
v1
v1
v1
v3
o2
o2
o2
o2
o2
n6.49
v0
v1
v1
v4
v5
o2
o2
o2
o2
o2
n8.74
v0
v2
v3
v3
v4
o2
o2
o2
o2
o2
n2.42
v1
v3
v3
v3
v4
o2
o2
o2
o2
o2
n5.68
v3
v3
v4
v4
v4
o2
o2
o2
o2
o2
n7.57
v3
v3
v4
v5
v5
C4
n0
C5
n0
C6
n0
C7
n0
O0 0
o54
46
o2
o2
n7.01
v2
v3
o2
o2
o2
n7.48
v0
v3
v5
o2
o2
o2
n5.41
v0
v5
v5
o2
o2
o2
n2.8
v1
v2
v4
o16
o2
o2
o2
n4.94
v3
v3
v5
o2
o2
o2
o2
n7.92
v0
v0
v4
v4
o2
o2
o2
o2
n4.78
v0
v1
v4
v5
o2
o2
o2
o2
n0.74
v0
v3
v3
v3
o2
o2
o2
o2
n4.92
v0
v4
v5
v5
o2
o2
o2
o2
n1.8
v1
v1
v1
v2
o2
o2
o2
o2
n5.62
v1
v1
v1
v5
o2
o2
o2
o2
n1.8
v1
v1
v3
v3
o2
o2
o2
o2
n7.45
v1
v2
v2
v5
o2
o2
o2
o2
n4.19
v1
v3
v3
v3
o2
o2
o2
o2
n7.15
v2
v3
v3
v3
o2
o2
o2
o2
n0.69
v3
v3
v3
v4
o2
o2
o2
o2
o2
n9.72
v0
v0
v0
v0
v0
o16
o2
o2
o2
o2
o2
n2.5
v0
v0
v1
v1
v2
o2
o2
o2
o2
o2
n1.99
v0
v0
v1
v2
v3
o2
o2
o2
o2
o2
n5.09
v0
v0
v1
v3
v4
o2
o2
o2
o2
o2
n8.07
v0
v1
v1
v1
v3
o2
o2
o2
o2
o2
n9.29
v0
v1
v1
v4
v5
o2
o2
o2
o2
o2
n1.81
v0
v2
v3
v3
v4
o16
o2
o2
o2
o2
o2
n6.61
v1
v3
v3
v3
v4
o2
o2
o2
o2
o2
n6.83
v3
v3
v4
v4
v4
o2
o2
o2
o2
o2
n1.42
v3
v3
v4
v5
v5
o2
o2
o2
o2
o2
o2
n9.23
v0
v0
v0
v2
v3
v3
o2
o2
o2
o2
o2
o2
n8.04
v0
v0
v0
v3
v3
v5
o2
o2
o2
o2
o2
o2
n3.35
v0
v0
v1
v1
v4
v5
o2
o2
o2
o2
o2
o2
n5.35
v0
v0
v1
v1
v5
v5
o2
o2
o2
o2
o2
o2
n6
v0
v0
v1
v3
v3
v4
o2
o2
o2
o2
o2
o2
n6.82
v0
v0
v2
v2
v2
v2
o2
o2
o2
o2
o2
o2
n9.26
v0
v0
v2
v3
v3
v3
o16
o2
o2
o2
o2
o2
o2
n8.78
v0
v1
v1
v3
v4
v5
o2
o2
o2
o2
o2
o2
n7.42
v0
v1
v2
v2
v3
v3
o2
o2
o2
o2
o2
o2
n4.73
v0
v2
v3
v4
v4
v5
o2
o2
o2
o2
o2
o2
n8.07
v1
v1
v1
v1
v4
v5
o2
o2
o2
o2
o2
o2
n8.49
v1
v1
v1
v2
v2
v4
o2
o2
o2
o2
o2
o2
n2.99
v1
v1
v2
v3
v3
v4
o2
o2
o2
o2
o2
o2
n3.95
v1
v1
v3
v4
v5
v5
o16
o2
o2
o2
o2
o2
o2
n8.88
v1
v1
v4
v4
v4
v4
o2
o2
o2
o2
o2
o2
n4.43
v1
v2
v2
v2
v2
v4
o2
o2
o2
o2
o2
o2
n3.34
v1
v2
v2
v2
v5
v5
o2
o2
o2
o2
o2
o2
n9.18
v1
v3
v3
v3
v3
v5
o16
o2
o2
o2
o2
o2
o2
n6.48
v2
v2
v4
v5
v5
v5
o2
o2
o2
o2
o2
o2
n0.09
v2
v3
v3
v3
v3
v4
k5
8
15
20
27
33
J0 6
0 0.48
1 6.87
2 7.81
3 2.31
4 8.03
5 5.85
J1 6
0 5.47
1 5.35
2 4.83
3 0.65
4 5.14
5 8.66
J2 6
0 8.14
1 6.31
2 1.69
3 0.9
4 4.75
5 4.62
J3 6
0 6.26
1 3.02
2 0.23
3 0.74
4 9.81
5 -2.35
J4 3
0 8.83
1 -1.95
3 7.62
J5 3
0 6.58
3 7.59
4 6.2
J6 3
0 7.31
1 8.79
5 -5.62
J7 6
0 1.74
1 1.09
2 8.69
3 4.88
4 7.58
5 3.72
G0 6
0 0.82
1 0.14
2 0.96
3 1.11
4 2.23
5 -1.5
